10	10
4	31	0	30	5	96	9	81	1	74	2	50	6	71	3	26	8	47	7	45
3	57	4	22	0	34	1	21	5	90	2	40	7	15	9	98	6	73	8	69
0	7	5	32	1	48	6	61	7	47	9	88	4	8	3	45	8	26	2	23
4	80	9	79	2	57	3	17	6	3	0	16	7	55	5	28	1	51	8	23
7	61	3	7	5	51	9	39	6	43	4	82	8	49	2	10	0	30	1	6
2	20	0	8	9	58	8	13	1	9	7	42	5	34	4	80	6	32	3	68
6	14	3	81	9	90	1	17	4	48	5	77	0	89	8	90	2	44	7	4
4	81	5	15	8	40	1	69	3	92	9	91	6	80	0	67	7	72	2	92
9	58	3	92	5	69	2	20	1	78	4	42	8	76	7	51	6	12	0	6
2	1	5	79	8	12	1	59	6	79	4	5	9	70	0	93	3	79	7	54
